p cnf 119 369
c ind 112 111 115 114 110 113 116 117 104 107 0
c ind 103 106 105 102 108 109 1 0
c ret 78 87 88 89 90 91 92 93 94 95 0
c ret 96 79 97 98 99 100 101 80 81 82 0
c ret 83 84 85 86 0
2 3 -37 -55 -58 0
-2 -3 0
-2 58 0
-2 55 0
-2 37 0
3 -4 -9 -12 115 0
3 -4 9 -12 -115 0
-3 12 0
-3 -9 -115 0
-3 4 0
-3 9 115 0
4 -5 112 0
4 5 -112 0
-4 -5 -112 0
-4 5 112 0
5 -6 -104 0
5 6 104 0
-5 -6 104 0
-5 6 -104 0
6 -7 -103 0
-6 103 0
-6 7 0
7 8 -102 0
-7 102 0
-7 -8 0
8 108 -109 0
8 -108 109 0
-8 -108 -109 0
-8 108 109 0
9 -10 -107 0
9 10 107 0
-9 -10 107 0
-9 10 -107 0
10 -11 -106 0
-10 106 0
-10 11 0
-8 11 -105 0
-11 105 0
8 -11 0
12 13 14 -29 114 0
12 -13 14 -29 -114 0
-12 -14 0
-12 -13 114 0
-12 29 0
-12 13 -114 0
-11 13 106 0
11 13 -106 0
-11 -13 -106 0
11 -13 106 0
14 18 22 0
14 15 25 0
14 18 25 0
14 15 22 0
-14 -15 -18 0
-14 -22 -25 0
15 -16 -17 96 112 0
15 -16 -17 -96 -112 0
-15 17 0
-15 -96 112 0
-15 16 0
-15 96 -112 0
16 -99 111 0
16 -95 115 0
16 -95 -99 0
16 111 115 0
-16 99 -115 0
-16 95 -111 0
17 -98 100 -114 116 0
17 98 -100 114 -116 0
17 98 100 114 116 0
17 -98 -100 -114 -116 0
-17 -98 114 0
-17 98 -114 0
-17 100 -116 0
-17 -100 116 0
18 -19 -20 94 110 0
18 -19 -20 -94 -110 0
-18 20 0
-18 -94 110 0
-18 19 0
-18 94 -110 0
19 -97 -111 0
19 95 113 0
19 95 -97 0
19 -111 113 0
-19 -95 111 0
-19 97 -113 0
20 -21 -101 -117 0
20 -21 101 117 0
-20 21 0
-20 -101 117 0
-20 101 -117 0
21 97 99 0
21 -113 -115 0
21 97 -115 0
21 99 -113 0
-21 -97 113 0
-21 -99 115 0
22 -23 -24 97 105 0
22 -23 -24 -97 -105 0
-22 24 0
-22 -97 105 0
-22 23 0
-22 97 -105 0
23 -98 104 0
23 -96 106 0
23 -96 -98 0
23 104 106 0
-23 98 -106 0
-23 96 -104 0
24 -95 99 -103 107 0
24 95 -99 103 -107 0
24 95 99 103 107 0
24 -95 -99 -103 -107 0
-24 -95 103 0
-24 95 -103 0
-24 99 -107 0
-24 -99 107 0
25 -26 -28 94 102 0
25 -26 -28 -94 -102 0
-25 28 0
-25 -94 102 0
-25 26 0
-25 94 -102 0
26 -27 -100 -108 0
26 -27 100 108 0
-26 27 0
-26 -100 108 0
-26 100 -108 0
27 -101 -104 0
27 96 109 0
27 96 -101 0
27 -104 109 0
-27 -96 104 0
-27 101 -109 0
28 98 101 0
28 -106 -109 0
28 98 -109 0
28 101 -106 0
-28 -98 106 0
-28 -101 109 0
29 -31 -35 111 0
29 -30 -31 -35 0
-29 35 0
-29 31 0
-29 30 -111 0
-7 30 103 0
7 30 -103 0
-7 -30 -103 0
7 -30 103 0
31 -32 -110 -116 117 0
-31 32 0
-31 110 0
-31 116 0
-31 -117 0
32 -33 -34 102 103 0
-32 -102 0
-32 34 0
-32 33 0
-32 -103 0
33 108 109 0
-33 -108 0
-33 -109 0
34 104 105 106 107 0
-34 -107 0
-34 -106 0
-34 -104 0
-34 -105 0
35 36 -111 113 0
30 35 -36 -113 0
35 -36 -111 -113 0
30 35 36 113 0
-35 -36 113 0
-35 36 -113 0
-30 -35 111 0
-8 36 105 0
8 36 -105 0
-8 -36 -105 0
8 -36 105 0
37 -38 -47 -52 99 0
37 -38 -47 52 -99 0
-37 38 0
-37 -52 -99 0
-37 47 0
-37 52 99 0
38 -39 42 -43 46 0
38 39 -42 43 -46 0
38 -39 42 43 -46 0
38 39 -42 -43 46 0
-38 -39 -42 0
-38 39 42 0
-38 43 46 0
-38 -43 -46 0
39 -40 -82 0
-39 82 0
-39 40 0
40 -41 -81 0
-40 81 0
-40 41 0
41 84 -85 0
41 -84 85 0
-41 -84 -85 0
-41 84 85 0
42 -83 -91 0
42 83 91 0
-42 83 -91 0
-42 -83 91 0
43 -44 -87 0
-43 87 0
-43 44 0
44 45 -86 0
-44 86 0
-44 -45 0
45 92 -93 0
45 -92 93 0
-45 -92 -93 0
-45 92 93 0
46 -88 -96 0
46 88 96 0
-46 88 -96 0
-46 -88 96 0
47 -48 -51 94 0
47 -48 51 -94 0
-47 48 0
-47 -51 -94 0
-47 51 94 0
48 49 -50 0
48 86 89 0
48 -50 86 0
48 49 89 0
-48 -49 -86 0
-48 50 -89 0
-41 49 78 0
41 49 -78 0
-41 -49 -78 0
41 -49 78 0
-41 50 81 0
41 50 -81 0
-41 -50 -81 0
41 -50 81 0
-45 51 86 0
45 51 -86 0
-45 -51 -86 0
45 -51 86 0
52 -53 -91 0
52 53 91 0
-52 -53 91 0
-52 53 -91 0
53 -54 -90 0
-53 90 0
-53 54 0
-45 54 -89 0
-54 89 0
45 -54 0
55 -56 57 95 0
55 56 -90 -95 0
55 -56 -90 95 0
55 56 57 -95 0
-55 -56 -95 0
-55 56 95 0
-55 -57 90 0
-44 56 -87 0
44 56 87 0
-44 -56 87 0
44 -56 -87 0
-40 57 82 0
40 57 -82 0
-40 -57 -82 0
40 -57 82 0
58 -59 -61 -63 88 0
58 59 -61 -63 -88 0
-58 63 0
-58 59 88 0
-58 61 0
-58 -59 -88 0
59 -60 -80 0
59 60 80 0
-59 -60 80 0
-59 60 -80 0
41 60 -78 -79 0
-60 78 0
-60 79 0
-41 -60 0
61 87 90 0
-57 61 -62 0
61 -62 90 0
-57 61 87 0
57 -61 -90 0
-61 62 -87 0
62 78 -79 0
-41 62 -79 0
41 62 -78 79 0
-41 -62 79 0
-62 78 79 0
41 -62 -78 -79 0
63 -64 -68 -87 0
62 63 -64 -68 0
-63 68 0
-63 64 0
-62 -63 87 0
64 65 66 67 97 0
64 65 -66 67 -97 0
-64 -65 0
-64 66 -97 0
-64 -67 0
-64 -66 97 0
49 65 86 0
-65 -86 0
-49 -65 0
-45 66 89 0
45 66 -89 0
-45 -66 -89 0
45 -66 89 0
-50 67 89 0
-67 -89 0
50 -67 0
54 68 -69 -70 -73 0
-54 68 69 -70 -73 0
-68 73 0
54 -68 69 0
-68 70 0
-54 -68 -69 0
69 -90 -98 0
69 90 98 0
-69 90 -98 0
-69 -90 98 0
70 -71 72 -101 0
70 -71 72 92 0
-70 71 0
-70 -72 0
-70 -92 101 0
71 85 -100 0
71 92 -93 0
71 92 -100 0
71 85 -93 0
-71 -85 -92 0
-71 93 100 0
72 84 -93 0
-72 -84 0
-72 93 0
73 -74 -75 -76 -77 0
-73 77 0
-73 74 0
-73 76 0
-73 75 0
74 -85 -93 0
74 84 -92 0
74 84 -85 0
74 -92 -93 0
-74 -84 93 0
-74 85 92 0
75 78 79 101 0
75 78 79 -92 0
-75 -78 0
-75 -79 0
-75 92 -101 0
76 80 81 82 83 0
-76 -83 0
-76 -82 0
-76 -80 0
-76 -81 0
77 84 85 100 0
77 84 85 93 0
-77 -84 0
-77 -85 0
-77 -93 -100 0
1 2 0
-1 -2 0
118 0

